NAME: Tnm145
COMMENT: Imported from tnm log files (not double checked for validity should be 2177169]
TYPE: TOUR
DIMENSION: 145
TOUR_SECTION:
1
117
114
119
111
108
105
122
125
102
99
96
93
90
87
84
81
78
75
72
69
66
63
60
57
54
51
48
45
42
39
36
33
30
27
24
21
136
133
130
127
124
121
18
15
12
9
6
118
3
116
113
110
107
104
101
98
95
92
89
86
83
80
77
74
71
68
65
62
59
56
53
50
47
44
41
38
35
32
29
26
23
20
17
14
11
8
123
120
5
2
115
112
109
106
103
100
97
94
91
88
85
82
79
76
73
70
67
126
129
132
135
138
141
144
139
142
145
143
140
137
134
131
128
64
61
58
55
52
49
46
43
40
37
34
31
28
25
22
19
16
13
10
7
4
-1
EOF
